c Created with the Wolfram Language : www.wolfram.com
c 
p edge 90 393
e 1 4
e 3 6
e 4 6
e 4 8
e 7 8
e 2 9
e 3 9
e 1 12
e 4 12
e 7 12
e 3 13
e 7 15
e 8 15
e 12 15
e 14 16
e 1 17
e 12 17
e 7 18
e 14 18
e 16 18
e 18 19
e 12 21
e 19 21
e 5 22
e 13 22
e 17 22
e 8 23
e 13 23
e 5 24
e 13 24
e 14 24
e 17 24
e 4 25
e 7 25
e 6 26
e 7 26
e 15 26
e 16 26
e 5 27
e 18 27
e 26 27
e 23 28
e 19 29
e 10 30
e 22 30
e 11 32
e 20 32
e 13 33
e 15 33
e 11 34
e 30 34
e 9 35
e 15 35
e 18 35
e 28 35
e 34 35
e 4 36
e 15 36
e 24 36
e 31 36
e 34 37
e 2 38
e 6 38
e 10 38
e 12 38
e 23 38
e 28 38
e 23 39
e 28 39
e 11 40
e 13 40
e 17 40
e 27 40
e 28 40
e 38 40
e 1 41
e 6 41
e 30 41
e 31 41
e 1 42
e 13 42
e 16 42
e 27 42
e 34 42
e 35 42
e 6 43
e 21 43
e 22 43
e 33 43
e 2 44
e 14 44
e 15 44
e 3 45
e 5 45
e 29 45
e 33 45
e 42 45
e 13 46
e 17 46
e 24 46
e 31 46
e 33 46
e 36 46
e 41 46
e 5 47
e 8 47
e 30 47
e 37 47
e 38 47
e 8 48
e 15 48
e 23 48
e 30 48
e 41 48
e 5 49
e 42 49
e 14 50
e 40 50
e 41 50
e 5 51
e 8 51
e 16 51
e 35 51
e 37 51
e 6 52
e 10 52
e 21 52
e 28 52
e 29 52
e 31 52
e 35 52
e 36 52
e 10 53
e 23 53
e 30 53
e 38 53
e 46 53
e 47 53
e 48 53
e 33 54
e 36 54
e 51 54
e 2 55
e 24 55
e 25 55
e 44 55
e 11 56
e 14 56
e 18 56
e 21 56
e 30 56
e 37 56
e 54 56
e 7 57
e 39 57
e 43 57
e 53 57
e 14 58
e 17 58
e 20 58
e 23 58
e 37 58
e 40 58
e 45 58
e 4 59
e 26 59
e 29 59
e 36 59
e 49 59
e 57 59
e 2 60
e 17 60
e 22 60
e 33 60
e 37 60
e 39 60
e 48 60
e 54 60
e 58 60
e 23 61
e 24 61
e 31 61
e 60 61
e 23 62
e 37 62
e 2 63
e 6 63
e 9 63
e 11 63
e 28 63
e 33 63
e 51 63
e 4 64
e 7 64
e 35 64
e 43 64
e 46 64
e 32 65
e 40 65
e 51 65
e 52 65
e 63 65
e 22 66
e 23 66
e 32 66
e 38 66
e 46 66
e 54 66
e 13 67
e 18 67
e 20 67
e 27 67
e 47 67
e 63 67
e 66 67
e 21 68
e 6 69
e 14 69
e 23 69
e 30 69
e 59 69
e 63 69
e 2 70
e 22 70
e 24 70
e 48 70
e 52 70
e 14 71
e 46 71
e 49 71
e 54 71
e 61 71
e 63 71
e 69 71
e 2 72
e 6 72
e 13 72
e 28 72
e 48 72
e 63 72
e 64 72
e 8 73
e 9 73
e 10 73
e 11 73
e 26 73
e 37 73
e 42 73
e 59 73
e 70 73
e 11 74
e 12 74
e 13 74
e 19 74
e 35 74
e 36 74
e 46 74
e 53 74
e 3 75
e 12 75
e 27 75
e 40 75
e 41 75
e 50 75
e 51 75
e 52 75
e 61 75
e 63 75
e 64 75
e 69 75
e 10 76
e 30 76
e 40 76
e 66 76
e 2 77
e 5 77
e 7 77
e 10 77
e 15 77
e 21 77
e 26 77
e 36 77
e 38 77
e 43 77
e 44 77
e 53 77
e 56 77
e 60 77
e 62 77
e 64 77
e 65 77
e 9 78
e 16 78
e 17 78
e 24 78
e 29 78
e 41 78
e 46 78
e 50 78
e 53 78
e 61 78
e 19 79
e 28 79
e 66 79
e 68 79
e 76 79
e 9 80
e 12 80
e 13 80
e 29 80
e 31 80
e 58 80
e 76 80
e 5 81
e 10 81
e 11 81
e 41 81
e 52 81
e 67 81
e 5 82
e 21 82
e 37 82
e 66 82
e 68 82
e 69 82
e 74 82
e 1 83
e 20 83
e 27 83
e 32 83
e 44 83
e 45 83
e 57 83
e 64 83
e 69 83
e 5 84
e 27 84
e 30 84
e 34 84
e 35 84
e 45 84
e 47 84
e 48 84
e 64 84
e 16 85
e 19 85
e 25 85
e 26 85
e 37 85
e 51 85
e 64 85
e 66 85
e 82 85
e 13 86
e 16 86
e 19 86
e 26 86
e 43 86
e 54 86
e 63 86
e 73 86
e 82 86
e 83 86
e 22 87
e 32 87
e 48 87
e 51 87
e 70 87
e 77 87
e 22 88
e 26 88
e 36 88
e 53 88
e 4 89
e 13 89
e 15 89
e 27 89
e 33 89
e 46 89
e 49 89
e 61 89
e 79 89
e 80 89
e 2 90
e 12 90
e 14 90
e 15 90
e 37 90
e 38 90
e 56 90
e 61 90
e 72 90
e 73 90
